\Problem name: 

Minimize
obj: 786 x0 + 529 x1 + 432 x2 + 730 x3 + 865 x4 + 760 x5 + 683 x6 + 238 x7 + 236 x8 + 495 x9
Subject To
cons0:  412 x0 + 414 x1 + 156 x2 + 375 x3 + 82 x4 + 921 x5 + 544 x6 + 594 x7 + 792 x8 + 323 x9
 <= 2306
cons1:  x0 <= 1
cons2:  x1 <= 1
cons3:  x2 <= 0
cons4:  x3 <= 1
cons5:  x4 <= 1
cons6:  x5 <= 0
cons7:  x6 <= 1
cons8:  x7 <= 0
cons9:  x8 <= 0
cons10:  x9 <= 1
cons11:  - x0 - x1 - x2 - x3 - x4 - x5 - x6 - x7 - x8 - x9
 <= 3
cons12:  -2 x0 -2 x1 -2 x2 -2 x3 - x4 -2 x5 -2 x6 -2 x7 -2 x8 -2 x9
 <= 8
cons13:  -2 x0 -2 x1 -2 x2 -2 x3 -2 x4 -2 x5 -2 x6 -2 x7 -2 x8 -2 x9
 <= 7
cons14:  -2 x0 -2 x1 - x2 -2 x3 -2 x4 -2 x5 -2 x6 -2 x7 -2 x8 -2 x9
 <= 5
cons15:  -3 x0 -3 x1 - x2 -3 x3 -3 x4 -3 x5 -3 x6 -3 x7 -3 x8 -3 x9
 <= 7
cons16:  -4 x0 -4 x1 - x2 -4 x3 -4 x4 -4 x5 -4 x6 -4 x7 -4 x8 -4 x9
 <= 10
cons17:  - x0 - x1 - x3 - x4 - x6 - x7 - x8 - x9 <= 1
cons18:  -2 x0 -2 x1 -2 x3 -2 x4 -2 x6 -2 x7 -2 x8 -2 x9 <= 3
cons19:  -2 x0 -2 x1 -2 x3 -2 x4 -2 x6 - x7 -2 x8 -2 x9 <= 1
cons20:  -3 x0 -3 x1 -3 x3 -3 x4 -3 x6 - x7 -3 x8 -3 x9 <= 1
cons21:  -4 x0 -4 x1 -4 x3 -4 x4 -4 x6 - x7 -4 x8 -4 x9 <= 2
cons22:  - x0 - x1 - x3 - x4 - x6 - x9 <= -1
cons23:  -2 x0 -2 x1 -2 x3 -2 x4 -2 x6 -2 x9 <= -1
cons24:  -786 x0 -529 x1 -432 x2 -730 x3 -865 x4 -760 x5 -683 x6 -238 x7 -236 x8 -495 x9
 <= -4088
Bounds
 0 <= x0 <= 1
 0 <= x1 <= 1
 0 <= x2 <= 1
 0 <= x3 <= 1
 0 <= x4 <= 1
 0 <= x5 <= 1
 0 <= x6 <= 1
 0 <= x7 <= 1
 0 <= x8 <= 1
 0 <= x9 <= 1
Integers
x0 x1 x2 x3 x4 x5 x6 x7 x8 x9 
End
